c description: Tseitin formula on Random 6-regular graph of 21 vertices, with odd charge
c generator: CNFgen (0.9.2)
c copyright: (C) 2012-2022 Massimo Lauria <massimo.lauria@uniroma1.it>
c url: https://massimolauria.net/cnfgen
c command line: cnfgen tseitin 21 6
c
p cnf 63 672
1 2 3 4 5 -6 0
1 2 3 4 -5 6 0
1 2 3 -4 5 6 0
1 2 3 -4 -5 -6 0
1 2 -3 4 5 6 0
1 2 -3 4 -5 -6 0
1 2 -3 -4 5 -6 0
1 2 -3 -4 -5 6 0
1 -2 3 4 5 6 0
1 -2 3 4 -5 -6 0
1 -2 3 -4 5 -6 0
1 -2 3 -4 -5 6 0
1 -2 -3 4 5 -6 0
1 -2 -3 4 -5 6 0
1 -2 -3 -4 5 6 0
1 -2 -3 -4 -5 -6 0
-1 2 3 4 5 6 0
-1 2 3 4 -5 -6 0
-1 2 3 -4 5 -6 0
-1 2 3 -4 -5 6 0
-1 2 -3 4 5 -6 0
-1 2 -3 4 -5 6 0
-1 2 -3 -4 5 6 0
-1 2 -3 -4 -5 -6 0
-1 -2 3 4 5 -6 0
-1 -2 3 4 -5 6 0
-1 -2 3 -4 5 6 0
-1 -2 3 -4 -5 -6 0
-1 -2 -3 4 5 6 0
-1 -2 -3 4 -5 -6 0
-1 -2 -3 -4 5 -6 0
-1 -2 -3 -4 -5 6 0
1 7 8 9 10 11 0
1 7 8 9 -10 -11 0
1 7 8 -9 10 -11 0
1 7 8 -9 -10 11 0
1 7 -8 9 10 -11 0
1 7 -8 9 -10 11 0
1 7 -8 -9 10 11 0
1 7 -8 -9 -10 -11 0
1 -7 8 9 10 -11 0
1 -7 8 9 -10 11 0
1 -7 8 -9 10 11 0
1 -7 8 -9 -10 -11 0
1 -7 -8 9 10 11 0
1 -7 -8 9 -10 -11 0
1 -7 -8 -9 10 -11 0
1 -7 -8 -9 -10 11 0
-1 7 8 9 10 -11 0
-1 7 8 9 -10 11 0
-1 7 8 -9 10 11 0
-1 7 8 -9 -10 -11 0
-1 7 -8 9 10 11 0
-1 7 -8 9 -10 -11 0
-1 7 -8 -9 10 -11 0
-1 7 -8 -9 -10 11 0
-1 -7 8 9 10 11 0
-1 -7 8 9 -10 -11 0
-1 -7 8 -9 10 -11 0
-1 -7 8 -9 -10 11 0
-1 -7 -8 9 10 -11 0
-1 -7 -8 9 -10 11 0
-1 -7 -8 -9 10 11 0
-1 -7 -8 -9 -10 -11 0
2 12 13 14 15 16 0
2 12 13 14 -15 -16 0
2 12 13 -14 15 -16 0
2 12 13 -14 -15 16 0
2 12 -13 14 15 -16 0
2 12 -13 14 -15 16 0
2 12 -13 -14 15 16 0
2 12 -13 -14 -15 -16 0
2 -12 13 14 15 -16 0
2 -12 13 14 -15 16 0
2 -12 13 -14 15 16 0
2 -12 13 -14 -15 -16 0
2 -12 -13 14 15 16 0
2 -12 -13 14 -15 -16 0
2 -12 -13 -14 15 -16 0
2 -12 -13 -14 -15 16 0
-2 12 13 14 15 -16 0
-2 12 13 14 -15 16 0
-2 12 13 -14 15 16 0
-2 12 13 -14 -15 -16 0
-2 12 -13 14 15 16 0
-2 12 -13 14 -15 -16 0
-2 12 -13 -14 15 -16 0
-2 12 -13 -14 -15 16 0
-2 -12 13 14 15 16 0
-2 -12 13 14 -15 -16 0
-2 -12 13 -14 15 -16 0
-2 -12 13 -14 -15 16 0
-2 -12 -13 14 15 -16 0
-2 -12 -13 14 -15 16 0
-2 -12 -13 -14 15 16 0
-2 -12 -13 -14 -15 -16 0
17 18 19 20 21 -22 0
17 18 19 20 -21 22 0
17 18 19 -20 21 22 0
17 18 19 -20 -21 -22 0
17 18 -19 20 21 22 0
17 18 -19 20 -21 -22 0
17 18 -19 -20 21 -22 0
17 18 -19 -20 -21 22 0
17 -18 19 20 21 22 0
17 -18 19 20 -21 -22 0
17 -18 19 -20 21 -22 0
17 -18 19 -20 -21 22 0
17 -18 -19 20 21 -22 0
17 -18 -19 20 -21 22 0
17 -18 -19 -20 21 22 0
17 -18 -19 -20 -21 -22 0
-17 18 19 20 21 22 0
-17 18 19 20 -21 -22 0
-17 18 19 -20 21 -22 0
-17 18 19 -20 -21 22 0
-17 18 -19 20 21 -22 0
-17 18 -19 20 -21 22 0
-17 18 -19 -20 21 22 0
-17 18 -19 -20 -21 -22 0
-17 -18 19 20 21 -22 0
-17 -18 19 20 -21 22 0
-17 -18 19 -20 21 22 0
-17 -18 19 -20 -21 -22 0
-17 -18 -19 20 21 22 0
-17 -18 -19 20 -21 -22 0
-17 -18 -19 -20 21 -22 0
-17 -18 -19 -20 -21 22 0
3 17 23 24 25 -26 0
3 17 23 24 -25 26 0
3 17 23 -24 25 26 0
3 17 23 -24 -25 -26 0
3 17 -23 24 25 26 0
3 17 -23 24 -25 -26 0
3 17 -23 -24 25 -26 0
3 17 -23 -24 -25 26 0
3 -17 23 24 25 26 0
3 -17 23 24 -25 -26 0
3 -17 23 -24 25 -26 0
3 -17 23 -24 -25 26 0
3 -17 -23 24 25 -26 0
3 -17 -23 24 -25 26 0
3 -17 -23 -24 25 26 0
3 -17 -23 -24 -25 -26 0
-3 17 23 24 25 26 0
-3 17 23 24 -25 -26 0
-3 17 23 -24 25 -26 0
-3 17 23 -24 -25 26 0
-3 17 -23 24 25 -26 0
-3 17 -23 24 -25 26 0
-3 17 -23 -24 25 26 0
-3 17 -23 -24 -25 -26 0
-3 -17 23 24 25 -26 0
-3 -17 23 24 -25 26 0
-3 -17 23 -24 25 26 0
-3 -17 23 -24 -25 -26 0
-3 -17 -23 24 25 26 0
-3 -17 -23 24 -25 -26 0
-3 -17 -23 -24 25 -26 0
-3 -17 -23 -24 -25 26 0
27 28 29 30 31 32 0
27 28 29 30 -31 -32 0
27 28 29 -30 31 -32 0
27 28 29 -30 -31 32 0
27 28 -29 30 31 -32 0
27 28 -29 30 -31 32 0
27 28 -29 -30 31 32 0
27 28 -29 -30 -31 -32 0
27 -28 29 30 31 -32 0
27 -28 29 30 -31 32 0
27 -28 29 -30 31 32 0
27 -28 29 -30 -31 -32 0
27 -28 -29 30 31 32 0
27 -28 -29 30 -31 -32 0
27 -28 -29 -30 31 -32 0
27 -28 -29 -30 -31 32 0
-27 28 29 30 31 -32 0
-27 28 29 30 -31 32 0
-27 28 29 -30 31 32 0
-27 28 29 -30 -31 -32 0
-27 28 -29 30 31 32 0
-27 28 -29 30 -31 -32 0
-27 28 -29 -30 31 -32 0
-27 28 -29 -30 -31 32 0
-27 -28 29 30 31 32 0
-27 -28 29 30 -31 -32 0
-27 -28 29 -30 31 -32 0
-27 -28 29 -30 -31 32 0
-27 -28 -29 30 31 -32 0
-27 -28 -29 30 -31 32 0
-27 -28 -29 -30 31 32 0
-27 -28 -29 -30 -31 -32 0
4 27 33 34 35 -36 0
4 27 33 34 -35 36 0
4 27 33 -34 35 36 0
4 27 33 -34 -35 -36 0
4 27 -33 34 35 36 0
4 27 -33 34 -35 -36 0
4 27 -33 -34 35 -36 0
4 27 -33 -34 -35 36 0
4 -27 33 34 35 36 0
4 -27 33 34 -35 -36 0
4 -27 33 -34 35 -36 0
4 -27 33 -34 -35 36 0
4 -27 -33 34 35 -36 0
4 -27 -33 34 -35 36 0
4 -27 -33 -34 35 36 0
4 -27 -33 -34 -35 -36 0
-4 27 33 34 35 36 0
-4 27 33 34 -35 -36 0
-4 27 33 -34 35 -36 0
-4 27 33 -34 -35 36 0
-4 27 -33 34 35 -36 0
-4 27 -33 34 -35 36 0
-4 27 -33 -34 35 36 0
-4 27 -33 -34 -35 -36 0
-4 -27 33 34 35 -36 0
-4 -27 33 34 -35 36 0
-4 -27 33 -34 35 36 0
-4 -27 33 -34 -35 -36 0
-4 -27 -33 34 35 36 0
-4 -27 -33 34 -35 -36 0
-4 -27 -33 -34 35 -36 0
-4 -27 -33 -34 -35 36 0
33 37 38 39 40 41 0
33 37 38 39 -40 -41 0
33 37 38 -39 40 -41 0
33 37 38 -39 -40 41 0
33 37 -38 39 40 -41 0
33 37 -38 39 -40 41 0
33 37 -38 -39 40 41 0
33 37 -38 -39 -40 -41 0
33 -37 38 39 40 -41 0
33 -37 38 39 -40 41 0
33 -37 38 -39 40 41 0
33 -37 38 -39 -40 -41 0
33 -37 -38 39 40 41 0
33 -37 -38 39 -40 -41 0
33 -37 -38 -39 40 -41 0
33 -37 -38 -39 -40 41 0
-33 37 38 39 40 -41 0
-33 37 38 39 -40 41 0
-33 37 38 -39 40 41 0
-33 37 38 -39 -40 -41 0
-33 37 -38 39 40 41 0
-33 37 -38 39 -40 -41 0
-33 37 -38 -39 40 -41 0
-33 37 -38 -39 -40 41 0
-33 -37 38 39 40 41 0
-33 -37 38 39 -40 -41 0
-33 -37 38 -39 40 -41 0
-33 -37 38 -39 -40 41 0
-33 -37 -38 39 40 -41 0
-33 -37 -38 39 -40 41 0
-33 -37 -38 -39 40 41 0
-33 -37 -38 -39 -40 -41 0
7 28 37 42 43 -44 0
7 28 37 42 -43 44 0
7 28 37 -42 43 44 0
7 28 37 -42 -43 -44 0
7 28 -37 42 43 44 0
7 28 -37 42 -43 -44 0
7 28 -37 -42 43 -44 0
7 28 -37 -42 -43 44 0
7 -28 37 42 43 44 0
7 -28 37 42 -43 -44 0
7 -28 37 -42 43 -44 0
7 -28 37 -42 -43 44 0
7 -28 -37 42 43 -44 0
7 -28 -37 42 -43 44 0
7 -28 -37 -42 43 44 0
7 -28 -37 -42 -43 -44 0
-7 28 37 42 43 44 0
-7 28 37 42 -43 -44 0
-7 28 37 -42 43 -44 0
-7 28 37 -42 -43 44 0
-7 28 -37 42 43 -44 0
-7 28 -37 42 -43 44 0
-7 28 -37 -42 43 44 0
-7 28 -37 -42 -43 -44 0
-7 -28 37 42 43 -44 0
-7 -28 37 42 -43 44 0
-7 -28 37 -42 43 44 0
-7 -28 37 -42 -43 -44 0
-7 -28 -37 42 43 44 0
-7 -28 -37 42 -43 -44 0
-7 -28 -37 -42 43 -44 0
-7 -28 -37 -42 -43 44 0
8 12 23 45 46 -47 0
8 12 23 45 -46 47 0
8 12 23 -45 46 47 0
8 12 23 -45 -46 -47 0
8 12 -23 45 46 47 0
8 12 -23 45 -46 -47 0
8 12 -23 -45 46 -47 0
8 12 -23 -45 -46 47 0
8 -12 23 45 46 47 0
8 -12 23 45 -46 -47 0
8 -12 23 -45 46 -47 0
8 -12 23 -45 -46 47 0
8 -12 -23 45 46 -47 0
8 -12 -23 45 -46 47 0
8 -12 -23 -45 46 47 0
8 -12 -23 -45 -46 -47 0
-8 12 23 45 46 47 0
-8 12 23 45 -46 -47 0
-8 12 23 -45 46 -47 0
-8 12 23 -45 -46 47 0
-8 12 -23 45 46 -47 0
-8 12 -23 45 -46 47 0
-8 12 -23 -45 46 47 0
-8 12 -23 -45 -46 -47 0
-8 -12 23 45 46 -47 0
-8 -12 23 45 -46 47 0
-8 -12 23 -45 46 47 0
-8 -12 23 -45 -46 -47 0
-8 -12 -23 45 46 47 0
-8 -12 -23 45 -46 -47 0
-8 -12 -23 -45 46 -47 0
-8 -12 -23 -45 -46 47 0
5 13 29 48 49 50 0
5 13 29 48 -49 -50 0
5 13 29 -48 49 -50 0
5 13 29 -48 -49 50 0
5 13 -29 48 49 -50 0
5 13 -29 48 -49 50 0
5 13 -29 -48 49 50 0
5 13 -29 -48 -49 -50 0
5 -13 29 48 49 -50 0
5 -13 29 48 -49 50 0
5 -13 29 -48 49 50 0
5 -13 29 -48 -49 -50 0
5 -13 -29 48 49 50 0
5 -13 -29 48 -49 -50 0
5 -13 -29 -48 49 -50 0
5 -13 -29 -48 -49 50 0
-5 13 29 48 49 -50 0
-5 13 29 48 -49 50 0
-5 13 29 -48 49 50 0
-5 13 29 -48 -49 -50 0
-5 13 -29 48 49 50 0
-5 13 -29 48 -49 -50 0
-5 13 -29 -48 49 -50 0
-5 13 -29 -48 -49 50 0
-5 -13 29 48 49 50 0
-5 -13 29 48 -49 -50 0
-5 -13 29 -48 49 -50 0
-5 -13 29 -48 -49 50 0
-5 -13 -29 48 49 -50 0
-5 -13 -29 48 -49 50 0
-5 -13 -29 -48 49 50 0
-5 -13 -29 -48 -49 -50 0
30 34 38 51 52 53 0
30 34 38 51 -52 -53 0
30 34 38 -51 52 -53 0
30 34 38 -51 -52 53 0
30 34 -38 51 52 -53 0
30 34 -38 51 -52 53 0
30 34 -38 -51 52 53 0
30 34 -38 -51 -52 -53 0
30 -34 38 51 52 -53 0
30 -34 38 51 -52 53 0
30 -34 38 -51 52 53 0
30 -34 38 -51 -52 -53 0
30 -34 -38 51 52 53 0
30 -34 -38 51 -52 -53 0
30 -34 -38 -51 52 -53 0
30 -34 -38 -51 -52 53 0
-30 34 38 51 52 -53 0
-30 34 38 51 -52 53 0
-30 34 38 -51 52 53 0
-30 34 38 -51 -52 -53 0
-30 34 -38 51 52 53 0
-30 34 -38 51 -52 -53 0
-30 34 -38 -51 52 -53 0
-30 34 -38 -51 -52 53 0
-30 -34 38 51 52 53 0
-30 -34 38 51 -52 -53 0
-30 -34 38 -51 52 -53 0
-30 -34 38 -51 -52 53 0
-30 -34 -38 51 52 -53 0
-30 -34 -38 51 -52 53 0
-30 -34 -38 -51 52 53 0
-30 -34 -38 -51 -52 -53 0
14 18 31 39 42 -54 0
14 18 31 39 -42 54 0
14 18 31 -39 42 54 0
14 18 31 -39 -42 -54 0
14 18 -31 39 42 54 0
14 18 -31 39 -42 -54 0
14 18 -31 -39 42 -54 0
14 18 -31 -39 -42 54 0
14 -18 31 39 42 54 0
14 -18 31 39 -42 -54 0
14 -18 31 -39 42 -54 0
14 -18 31 -39 -42 54 0
14 -18 -31 39 42 -54 0
14 -18 -31 39 -42 54 0
14 -18 -31 -39 42 54 0
14 -18 -31 -39 -42 -54 0
-14 18 31 39 42 54 0
-14 18 31 39 -42 -54 0
-14 18 31 -39 42 -54 0
-14 18 31 -39 -42 54 0
-14 18 -31 39 42 -54 0
-14 18 -31 39 -42 54 0
-14 18 -31 -39 42 54 0
-14 18 -31 -39 -42 -54 0
-14 -18 31 39 42 -54 0
-14 -18 31 39 -42 54 0
-14 -18 31 -39 42 54 0
-14 -18 31 -39 -42 -54 0
-14 -18 -31 39 42 54 0
-14 -18 -31 39 -42 -54 0
-14 -18 -31 -39 42 -54 0
-14 -18 -31 -39 -42 54 0
35 43 45 55 56 57 0
35 43 45 55 -56 -57 0
35 43 45 -55 56 -57 0
35 43 45 -55 -56 57 0
35 43 -45 55 56 -57 0
35 43 -45 55 -56 57 0
35 43 -45 -55 56 57 0
35 43 -45 -55 -56 -57 0
35 -43 45 55 56 -57 0
35 -43 45 55 -56 57 0
35 -43 45 -55 56 57 0
35 -43 45 -55 -56 -57 0
35 -43 -45 55 56 57 0
35 -43 -45 55 -56 -57 0
35 -43 -45 -55 56 -57 0
35 -43 -45 -55 -56 57 0
-35 43 45 55 56 -57 0
-35 43 45 55 -56 57 0
-35 43 45 -55 56 57 0
-35 43 45 -55 -56 -57 0
-35 43 -45 55 56 57 0
-35 43 -45 55 -56 -57 0
-35 43 -45 -55 56 -57 0
-35 43 -45 -55 -56 57 0
-35 -43 45 55 56 57 0
-35 -43 45 55 -56 -57 0
-35 -43 45 -55 56 -57 0
-35 -43 45 -55 -56 57 0
-35 -43 -45 55 56 -57 0
-35 -43 -45 55 -56 57 0
-35 -43 -45 -55 56 57 0
-35 -43 -45 -55 -56 -57 0
9 24 44 46 48 58 0
9 24 44 46 -48 -58 0
9 24 44 -46 48 -58 0
9 24 44 -46 -48 58 0
9 24 -44 46 48 -58 0
9 24 -44 46 -48 58 0
9 24 -44 -46 48 58 0
9 24 -44 -46 -48 -58 0
9 -24 44 46 48 -58 0
9 -24 44 46 -48 58 0
9 -24 44 -46 48 58 0
9 -24 44 -46 -48 -58 0
9 -24 -44 46 48 58 0
9 -24 -44 46 -48 -58 0
9 -24 -44 -46 48 -58 0
9 -24 -44 -46 -48 58 0
-9 24 44 46 48 -58 0
-9 24 44 46 -48 58 0
-9 24 44 -46 48 58 0
-9 24 44 -46 -48 -58 0
-9 24 -44 46 48 58 0
-9 24 -44 46 -48 -58 0
-9 24 -44 -46 48 -58 0
-9 24 -44 -46 -48 58 0
-9 -24 44 46 48 58 0
-9 -24 44 46 -48 -58 0
-9 -24 44 -46 48 -58 0
-9 -24 44 -46 -48 58 0
-9 -24 -44 46 48 -58 0
-9 -24 -44 46 -48 58 0
-9 -24 -44 -46 48 58 0
-9 -24 -44 -46 -48 -58 0
19 40 55 58 59 60 0
19 40 55 58 -59 -60 0
19 40 55 -58 59 -60 0
19 40 55 -58 -59 60 0
19 40 -55 58 59 -60 0
19 40 -55 58 -59 60 0
19 40 -55 -58 59 60 0
19 40 -55 -58 -59 -60 0
19 -40 55 58 59 -60 0
19 -40 55 58 -59 60 0
19 -40 55 -58 59 60 0
19 -40 55 -58 -59 -60 0
19 -40 -55 58 59 60 0
19 -40 -55 58 -59 -60 0
19 -40 -55 -58 59 -60 0
19 -40 -55 -58 -59 60 0
-19 40 55 58 59 -60 0
-19 40 55 58 -59 60 0
-19 40 55 -58 59 60 0
-19 40 55 -58 -59 -60 0
-19 40 -55 58 59 60 0
-19 40 -55 58 -59 -60 0
-19 40 -55 -58 59 -60 0
-19 40 -55 -58 -59 60 0
-19 -40 55 58 59 60 0
-19 -40 55 58 -59 -60 0
-19 -40 55 -58 59 -60 0
-19 -40 55 -58 -59 60 0
-19 -40 -55 58 59 -60 0
-19 -40 -55 58 -59 60 0
-19 -40 -55 -58 59 60 0
-19 -40 -55 -58 -59 -60 0
15 20 25 36 59 -61 0
15 20 25 36 -59 61 0
15 20 25 -36 59 61 0
15 20 25 -36 -59 -61 0
15 20 -25 36 59 61 0
15 20 -25 36 -59 -61 0
15 20 -25 -36 59 -61 0
15 20 -25 -36 -59 61 0
15 -20 25 36 59 61 0
15 -20 25 36 -59 -61 0
15 -20 25 -36 59 -61 0
15 -20 25 -36 -59 61 0
15 -20 -25 36 59 -61 0
15 -20 -25 36 -59 61 0
15 -20 -25 -36 59 61 0
15 -20 -25 -36 -59 -61 0
-15 20 25 36 59 61 0
-15 20 25 36 -59 -61 0
-15 20 25 -36 59 -61 0
-15 20 25 -36 -59 61 0
-15 20 -25 36 59 -61 0
-15 20 -25 36 -59 61 0
-15 20 -25 -36 59 61 0
-15 20 -25 -36 -59 -61 0
-15 -20 25 36 59 -61 0
-15 -20 25 36 -59 61 0
-15 -20 25 -36 59 61 0
-15 -20 25 -36 -59 -61 0
-15 -20 -25 36 59 61 0
-15 -20 -25 36 -59 -61 0
-15 -20 -25 -36 59 -61 0
-15 -20 -25 -36 -59 61 0
10 21 32 51 62 -63 0
10 21 32 51 -62 63 0
10 21 32 -51 62 63 0
10 21 32 -51 -62 -63 0
10 21 -32 51 62 63 0
10 21 -32 51 -62 -63 0
10 21 -32 -51 62 -63 0
10 21 -32 -51 -62 63 0
10 -21 32 51 62 63 0
10 -21 32 51 -62 -63 0
10 -21 32 -51 62 -63 0
10 -21 32 -51 -62 63 0
10 -21 -32 51 62 -63 0
10 -21 -32 51 -62 63 0
10 -21 -32 -51 62 63 0
10 -21 -32 -51 -62 -63 0
-10 21 32 51 62 63 0
-10 21 32 51 -62 -63 0
-10 21 32 -51 62 -63 0
-10 21 32 -51 -62 63 0
-10 21 -32 51 62 -63 0
-10 21 -32 51 -62 63 0
-10 21 -32 -51 62 63 0
-10 21 -32 -51 -62 -63 0
-10 -21 32 51 62 -63 0
-10 -21 32 51 -62 63 0
-10 -21 32 -51 62 63 0
-10 -21 32 -51 -62 -63 0
-10 -21 -32 51 62 63 0
-10 -21 -32 51 -62 -63 0
-10 -21 -32 -51 62 -63 0
-10 -21 -32 -51 -62 63 0
47 49 52 54 56 62 0
47 49 52 54 -56 -62 0
47 49 52 -54 56 -62 0
47 49 52 -54 -56 62 0
47 49 -52 54 56 -62 0
47 49 -52 54 -56 62 0
47 49 -52 -54 56 62 0
47 49 -52 -54 -56 -62 0
47 -49 52 54 56 -62 0
47 -49 52 54 -56 62 0
47 -49 52 -54 56 62 0
47 -49 52 -54 -56 -62 0
47 -49 -52 54 56 62 0
47 -49 -52 54 -56 -62 0
47 -49 -52 -54 56 -62 0
47 -49 -52 -54 -56 62 0
-47 49 52 54 56 -62 0
-47 49 52 54 -56 62 0
-47 49 52 -54 56 62 0
-47 49 52 -54 -56 -62 0
-47 49 -52 54 56 62 0
-47 49 -52 54 -56 -62 0
-47 49 -52 -54 56 -62 0
-47 49 -52 -54 -56 62 0
-47 -49 52 54 56 62 0
-47 -49 52 54 -56 -62 0
-47 -49 52 -54 56 -62 0
-47 -49 52 -54 -56 62 0
-47 -49 -52 54 56 -62 0
-47 -49 -52 54 -56 62 0
-47 -49 -52 -54 56 62 0
-47 -49 -52 -54 -56 -62 0
26 50 53 60 61 63 0
26 50 53 60 -61 -63 0
26 50 53 -60 61 -63 0
26 50 53 -60 -61 63 0
26 50 -53 60 61 -63 0
26 50 -53 60 -61 63 0
26 50 -53 -60 61 63 0
26 50 -53 -60 -61 -63 0
26 -50 53 60 61 -63 0
26 -50 53 60 -61 63 0
26 -50 53 -60 61 63 0
26 -50 53 -60 -61 -63 0
26 -50 -53 60 61 63 0
26 -50 -53 60 -61 -63 0
26 -50 -53 -60 61 -63 0
26 -50 -53 -60 -61 63 0
-26 50 53 60 61 -63 0
-26 50 53 60 -61 63 0
-26 50 53 -60 61 63 0
-26 50 53 -60 -61 -63 0
-26 50 -53 60 61 63 0
-26 50 -53 60 -61 -63 0
-26 50 -53 -60 61 -63 0
-26 50 -53 -60 -61 63 0
-26 -50 53 60 61 63 0
-26 -50 53 60 -61 -63 0
-26 -50 53 -60 61 -63 0
-26 -50 53 -60 -61 63 0
-26 -50 -53 60 61 -63 0
-26 -50 -53 60 -61 63 0
-26 -50 -53 -60 61 63 0
-26 -50 -53 -60 -61 -63 0
6 11 16 22 41 -57 0
6 11 16 22 -41 57 0
6 11 16 -22 41 57 0
6 11 16 -22 -41 -57 0
6 11 -16 22 41 57 0
6 11 -16 22 -41 -57 0
6 11 -16 -22 41 -57 0
6 11 -16 -22 -41 57 0
6 -11 16 22 41 57 0
6 -11 16 22 -41 -57 0
6 -11 16 -22 41 -57 0
6 -11 16 -22 -41 57 0
6 -11 -16 22 41 -57 0
6 -11 -16 22 -41 57 0
6 -11 -16 -22 41 57 0
6 -11 -16 -22 -41 -57 0
-6 11 16 22 41 57 0
-6 11 16 22 -41 -57 0
-6 11 16 -22 41 -57 0
-6 11 16 -22 -41 57 0
-6 11 -16 22 41 -57 0
-6 11 -16 22 -41 57 0
-6 11 -16 -22 41 57 0
-6 11 -16 -22 -41 -57 0
-6 -11 16 22 41 -57 0
-6 -11 16 22 -41 57 0
-6 -11 16 -22 41 57 0
-6 -11 16 -22 -41 -57 0
-6 -11 -16 22 41 57 0
-6 -11 -16 22 -41 -57 0
-6 -11 -16 -22 41 -57 0
-6 -11 -16 -22 -41 57 0
